JulietBench/Juliet_Based_Patch_Bench/linux/CWE-189-Numeric-Errors/CVE_2010_2798_728a756b8fcd22d80e2dbba8117a8a3aafd3f203/Resultgfs2_dirent_find_space_Snippet_patch1NEQ.smt2
; benchmark generated from python API
(set-info :status unknown)
(declare-fun R () (_ BitVec 32))
(declare-fun rdi () (_ BitVec 64))
(declare-fun rsi () (_ BitVec 64))
(assert
 (let (($x117 (= (_ bv1 32) R)))
 (let ((?x6 ((_ extract 31 0) rdi)))
 (let ((?x8 ((_ extract 31 0) rsi)))
 (let ((?x13 (bvadd (_ bv47 32) ?x8)))
 (let ((?x18 ((_ extract 31 3) ?x13)))
 (let ((?x28 (concat ?x18 (_ bv0 3))))
 (let (($x89 (bvule ?x28 ?x6)))
 (let (($x113 (and $x89 $x117)))
 (let (($x111 (= (_ bv0 32) R)))
 (let (($x120 (bvugt ?x28 ?x6)))
 (let (($x112 (and $x120 $x111)))
 (let (($x131 (or $x112 $x113)))
 (let (($x129 (not $x131)))
 (let ((?x24 (bvsub ?x6 (_ bv40 32))))
 (let (($x26 (bvule ?x28 ?x24)))
 (let (($x130 (and $x26 $x117)))
 (let (($x72 (bvugt ?x28 ?x24)))
 (let (($x133 (and $x72 $x111)))
 (let (($x126 (or $x133 $x130)))
 (let (($x93 (not $x126)))
 (let (($x173 (and $x93 $x129)))
 (let (($x174 (and $x126 $x131)))
 (let (($x134 (or $x174 $x173)))
 (not $x134)))))))))))))))))))))))))
(check-sat)
